NAME : CMT10
COMMENT : 1395.85
TYPE : CVRP
DIMENSION : 200
EDGE_WEIGHT_TYPE : EUC_2D
CAPACITY : 200
DISTANCE : 200.00000
SERVICE_TIME : 10.0
NODE_COORD_SECTION
1 35.00000 35.00000
2 22.00000 22.00000
3 36.00000 26.00000
4 21.00000 45.00000
5 45.00000 35.00000
6 55.00000 20.00000
7 33.00000 34.00000
8 50.00000 50.00000
9 55.00000 45.00000
10 26.00000 59.00000
11 40.00000 66.00000
12 55.00000 65.00000
13 35.00000 51.00000
14 62.00000 35.00000
15 62.00000 57.00000
16 62.00000 24.00000
17 21.00000 36.00000
18 33.00000 44.00000
19 9.00000 56.00000
20 62.00000 48.00000
21 66.00000 14.00000
22 44.00000 13.00000
23 26.00000 13.00000
24 11.00000 28.00000
25 7.00000 43.00000
26 17.00000 64.00000
27 41.00000 46.00000
28 55.00000 34.00000
29 35.00000 16.00000
30 52.00000 26.00000
31 43.00000 26.00000
32 31.00000 76.00000
33 22.00000 53.00000
34 26.00000 29.00000
35 50.00000 40.00000
36 55.00000 50.00000
37 54.00000 10.00000
38 60.00000 15.00000
39 47.00000 66.00000
40 30.00000 60.00000
41 30.00000 50.00000
42 12.00000 17.00000
43 15.00000 14.00000
44 16.00000 19.00000
45 21.00000 48.00000
46 50.00000 30.00000
47 51.00000 42.00000
48 50.00000 15.00000
49 48.00000 21.00000
50 12.00000 38.00000
51 37.00000 52.00000
52 49.00000 49.00000
53 52.00000 64.00000
54 20.00000 26.00000
55 40.00000 30.00000
56 21.00000 47.00000
57 17.00000 63.00000
58 31.00000 62.00000
59 52.00000 33.00000
60 51.00000 21.00000
61 42.00000 41.00000
62 31.00000 32.00000
63 5.00000 25.00000
64 12.00000 42.00000
65 36.00000 16.00000
66 52.00000 41.00000
67 27.00000 23.00000
68 17.00000 33.00000
69 13.00000 13.00000
70 57.00000 58.00000
71 62.00000 42.00000
72 42.00000 57.00000
73 16.00000 57.00000
74 8.00000 52.00000
75 7.00000 38.00000
76 27.00000 68.00000
77 30.00000 48.00000
78 43.00000 67.00000
79 58.00000 48.00000
80 58.00000 27.00000
81 37.00000 69.00000
82 38.00000 46.00000
83 46.00000 10.00000
84 61.00000 33.00000
85 62.00000 63.00000
86 63.00000 69.00000
87 32.00000 22.00000
88 45.00000 35.00000
89 59.00000 15.00000
90 5.00000 6.00000
91 10.00000 17.00000
92 21.00000 10.00000
93 5.00000 64.00000
94 30.00000 15.00000
95 39.00000 10.00000
96 32.00000 39.00000
97 25.00000 32.00000
98 25.00000 55.00000
99 48.00000 28.00000
100 56.00000 37.00000
101 41.00000 49.00000
102 35.00000 17.00000
103 55.00000 45.00000
104 55.00000 20.00000
105 15.00000 30.00000
106 25.00000 30.00000
107 20.00000 50.00000
108 10.00000 43.00000
109 55.00000 60.00000
110 30.00000 60.00000
111 20.00000 65.00000
112 50.00000 35.00000
113 30.00000 25.00000
114 15.00000 10.00000
115 30.00000 5.00000
116 10.00000 20.00000
117 5.00000 30.00000
118 20.00000 40.00000
119 15.00000 60.00000
120 45.00000 65.00000
121 45.00000 20.00000
122 45.00000 10.00000
123 55.00000 5.00000
124 65.00000 35.00000
125 65.00000 20.00000
126 45.00000 30.00000
127 35.00000 40.00000
128 41.00000 37.00000
129 64.00000 42.00000
130 40.00000 60.00000
131 31.00000 52.00000
132 35.00000 69.00000
133 53.00000 52.00000
134 65.00000 55.00000
135 63.00000 65.00000
136 2.00000 60.00000
137 20.00000 20.00000
138 5.00000 5.00000
139 60.00000 12.00000
140 40.00000 25.00000
141 42.00000 7.00000
142 24.00000 12.00000
143 23.00000 3.00000
144 11.00000 14.00000
145 6.00000 38.00000
146 2.00000 48.00000
147 8.00000 56.00000
148 13.00000 52.00000
149 6.00000 68.00000
150 47.00000 47.00000
151 49.00000 58.00000
152 27.00000 43.00000
153 37.00000 31.00000
154 57.00000 29.00000
155 63.00000 23.00000
156 53.00000 12.00000
157 32.00000 12.00000
158 36.00000 26.00000
159 21.00000 24.00000
160 17.00000 34.00000
161 12.00000 24.00000
162 24.00000 58.00000
163 27.00000 69.00000
164 15.00000 77.00000
165 62.00000 77.00000
166 49.00000 73.00000
167 67.00000 5.00000
168 56.00000 39.00000
169 37.00000 47.00000
170 37.00000 56.00000
171 57.00000 68.00000
172 47.00000 16.00000
173 44.00000 17.00000
174 46.00000 13.00000
175 49.00000 11.00000
176 49.00000 42.00000
177 53.00000 43.00000
178 61.00000 52.00000
179 57.00000 48.00000
180 56.00000 37.00000
181 55.00000 54.00000
182 15.00000 47.00000
183 14.00000 37.00000
184 11.00000 31.00000
185 16.00000 22.00000
186 4.00000 18.00000
187 28.00000 18.00000
188 26.00000 52.00000
189 26.00000 35.00000
190 31.00000 67.00000
191 15.00000 19.00000
192 22.00000 22.00000
193 18.00000 24.00000
194 26.00000 27.00000
195 25.00000 24.00000
196 22.00000 27.00000
197 25.00000 21.00000
198 19.00000 21.00000
199 20.00000 26.00000
200 18.00000 18.00000
DEMAND_SECTION
1 0
2 18
3 26
4 11
5 30
6 21
7 19
8 15
9 16
10 29
11 26
12 37
13 16
14 12
15 31
16 8
17 19
18 20
19 13
20 15
21 22
22 28
23 12
24 6
25 27
26 14
27 18
28 17
29 29
30 13
31 22
32 25
33 28
34 27
35 19
36 10
37 12
38 14
39 24
40 16
41 33
42 15
43 11
44 18
45 17
46 21
47 27
48 19
49 20
50 5
51 7
52 30
53 16
54 9
55 21
56 15
57 19
58 23
59 11
60 5
61 19
62 29
63 23
64 21
65 10
66 15
67 3
68 41
69 9
70 28
71 8
72 8
73 16
74 10
75 28
76 7
77 15
78 14
79 6
80 19
81 11
82 12
83 23
84 26
85 17
86 6
87 9
88 15
89 14
90 7
91 27
92 13
93 11
94 16
95 10
96 5
97 25
98 17
99 18
100 10
101 10
102 7
103 13
104 19
105 26
106 3
107 5
108 9
109 16
110 16
111 12
112 19
113 23
114 20
115 8
116 19
117 2
118 12
119 17
120 9
121 11
122 18
123 29
124 3
125 6
126 17
127 16
128 16
129 9
130 21
131 27
132 23
133 11
134 14
135 8
136 5
137 8
138 16
139 31
140 9
141 5
142 5
143 7
144 18
145 16
146 1
147 27
148 36
149 30
150 13
151 10
152 9
153 14
154 18
155 2
156 6
157 7
158 18
159 28
160 3
161 13
162 19
163 10
164 9
165 20
166 25
167 25
168 36
169 6
170 5
171 15
172 25
173 9
174 8
175 18
176 13
177 14
178 3
179 23
180 6
181 26
182 16
183 11
184 7
185 41
186 35
187 26
188 9
189 15
190 3
191 1
192 2
193 22
194 27
195 20
196 11
197 12
198 10
199 9
200 17
DEPOT_SECTION
1
-1
EOF
